L=18;
no=6;
njo=[6,7,8,6,8,6];
djo=[7,7,9,10,7,7];
trab=[3,6,3,12,12,6,3,6,3,18,3,3,2,2,4,3,2,2,6,6,6,2,6,6,6,2,12,2,6,2,2,3,6,2,6,6,3,6,4,3,2,6,6,3,6,6,3];
nprec=9;
prec=[| 3, 8,
      | 7, 14,
      | 8, 21,
      | 16, 22,
      | 22, 33,
      | 23, 35,
      | 29, 37,
      | 30, 39,
      | 35, 40 |];


%%%%%%%%%%%%%%%%%%%%%%%%%%%%%%%%%%%%%%%%%%%%%%%%%%%%%%%%%%%%%%%%%%%%%%
%  6
%
%  6   1   6   7  45
%  3   6   3  12  12   6   3 
%  1   1   1   0   0
%  1   2   2   0   0
%  1   3   3   0   1
%      2   2   8
%  1   4   4   0   0
%  1   5   5   0   0
%  1   6   6   0   0
%
%  7   7  13   7  37
%  6   3  18   3   3   2   2 
%  2   1   7   0   1
%      3   1  14
%  2   2   8   1   1
%      1   3   3
%      3   8  21
%  2   3   9   0   0
%  2   4  10   0   0
%  2   5  11   0   0
%  2   6  12   0   0
%  2   7  13   0   0
%
%  8  14  21   9  37
%  4   3   2   2   6   6   6   2   6 
%  3   1  14   1   0
%      2   1   7
%  3   2  15   0   0
%  3   3  16   0   1
%      4   1  22
%  3   4  17   0   0
%  3   5  18   0   0
%  3   6  19   0   0
%  3   7  20   0   0
%  3   8  21   1   0
%      2   2   8
%
%  6  22  27  10  47
%  6   6   2  12   2   6   2   2   3   6 
%  4   1  22   1   1
%      3   3  16
%      5   6  33
%  4   2  23   0   1
%      5   8  35
%  4   3  24   0   0
%  4   4  25   0   0
%  4   5  26   0   0
%  4   6  27   0   0
%
%  8  28  35   7  30
%  2   6   6   3   6   4   3 
%  5   1  28   0   0
%  5   2  29   0   1
%      6   2  37
%  5   3  30   0   1
%      6   4  39
%  5   4  31   0   0
%  5   5  32   0   0
%  5   6  33   1   0
%      4   1  22
%  5   7  34   0   0
%  5   8  35   1   1
%      4   2  23
%      6   5  40
%
%  6  36  41   7  32
%  2   6   6   3   6   6   3 
%  6   1  36   0   0
%  6   2  37   1   0
%      5   2  29
%  6   3  38   0   0
%  6   4  39   1   0
%      5   3  30
%  6   5  40   1   0
%      5   8  35
%  6   6  41   0   0
%
% 94
